(set-logic LIA)
(synth-fun inv ((brake Int) (distance Int) ) Bool)

(declare-var brake Int)
(declare-var distance Int)


(constraint (= (inv brake distance) (and (>= distance brake) (not (>= 1 brake)))))

(check-synth)